\ This file has been generated by DOcplex
\ ENCODING=ISO-8859-1
\Problem name: docplex_model2

Minimize
 obj:
Subject To

Bounds
       x_0 = 0
       x_1 <= 1
       x_2 <= 1
       x_3 <= 1
       x_4 <= 1
       x_5 <= 1
       x_6 <= 1
       x_7 <= 1
       x_8 <= 1
       x_9 <= 1
       x_10 <= 1
       x_11 <= 1
       x_12 <= 1
       x_13 <= 1
       x_14 <= 1
       x_15 <= 1
       x_16 <= 1
       x_17 <= 1
       x_18 <= 1
       x_19 <= 1
       x_20 <= 1
       x_21 <= 1
       x_22 <= 1
       x_23 <= 1
       x_24 <= 1
       x_25 <= 1
       x_26 <= 1
       x_27 <= 1
       x_28 <= 1
       x_29 <= 1
       x_30 <= 1
       x_31 <= 1
       x_32 = 0
       x_33 <= 1
       x_34 <= 1
       x_35 <= 1
       x_36 <= 1
       x_37 <= 1
       x_38 <= 1
       x_39 = 0
       x_40 <= 1
       x_41 <= 1
       x_42 <= 1
       x_43 <= 1
       x_44 <= 1
       x_45 <= 1
       x_46 <= 1
       x_47 <= 1
       x_48 <= 1
       x_49 <= 1
       x_50 <= 1
       x_51 <= 1
       x_52 <= 1
       x_53 <= 1
       x_54 <= 1
       x_55 <= 1
       x_56 <= 1
       x_57 <= 1
       x_58 <= 1
       x_59 <= 1
       x_60 <= 1
       x_61 <= 1
       x_62 <= 1
       x_63 <= 1
 -45.304440483451 <= o_0 <= 13.190559728071
 -41.814154887572 <= o_1 <= 12.092993941158
 -36.176355231786 <= o_2 <= 22.056357566966
 -37.998875457793 <= o_3 <= 15.146291956306
 -39.523875668645 <= o_4 <= 23.449754552916
 -41.170121829957 <= o_5 <= 15.371648577973
 -45.586122690118 <= o_6 <= 11.915580518544
 -36.582503369078 <= o_7 <= 16.533898577094
 -44.645009843633 <= o_8 <= 11.793533351272
 -31.924607942812 <= o_9 <= 10.934042781591
End
